%%%mzn-stat: initTime=0.0096998
%%%mzn-stat: objective=254
%%%mzn-stat: nodes=568
%%%mzn-stat: restarts=0
%%%mzn-stat: peakDepth=304
%%%mzn-stat: solveTime=0.054588739
%%%mzn-stat: variables=1077
%%%mzn-stat: propagators=791
%%%mzn-stat: failures=255
%%%mzn-stat: propagations=117960
%%%mzn-stat: nogoods=255
%%%mzn-stat: AverageConflictSize=2.1411764705882352
%%%mzn-stat: NumUnitNogoodsLearned=253
%%%mzn-stat: AverageLearnedNogoodLength=1.4549019607843137
%%%mzn-stat: AverageBacktrackAmount=0
%%%mzn-stat: AverageLbd=1.1568627450980393
%%%mzn-stat-end
maxleg = 254;
succ = array1d(1..50,[20, 4, 19, 22, 43, 38, 47, 44, 46, 50, 34, 24, 8, 5, 18, 17, 27, 29, 36, 33, 48, 39, 12, 42, 11, 13, 25, 37, 10, 16, 35, 40, 7, 28, 26, 41, 31, 45, 9, 2, 14, 21, 30, 1, 3, 15, 23, 49, 32, 6]);
% time elapsed: 6.04 s
----------
==========
% time elapsed: 6.04 s
%%%mzn-stat: initTime=0.0096998
%%%mzn-stat: objective=254
%%%mzn-stat: nodes=568
%%%mzn-stat: restarts=0
%%%mzn-stat: peakDepth=304
%%%mzn-stat: solveTime=0.054592611
%%%mzn-stat: variables=1077
%%%mzn-stat: propagators=791
%%%mzn-stat: failures=255
%%%mzn-stat: propagations=117960
%%%mzn-stat: nogoods=255
%%%mzn-stat: AverageConflictSize=2.1411764705882352
%%%mzn-stat: NumUnitNogoodsLearned=253
%%%mzn-stat: AverageLearnedNogoodLength=1.4549019607843137
%%%mzn-stat: AverageBacktrackAmount=0
%%%mzn-stat: AverageLbd=1.1568627450980393
%%%mzn-stat-end
